<?xml version="1.0" encoding="UTF-8"?><osil xmlns="os.optimizationservices.org" xmlns:xsi="http://www.w3.org/2001/XMLSchema-instance" xsi:schemaLocation="os.optimizationservices.org http://www.optimizationservices.org/schemas/2.0/OSiL.xsd"><instanceHeader><name>sssd12-05</name></instanceHeader><instanceData><variables numberOfVariables="95"><var name="b1" type="B" ub="1"/><var name="b2" type="B" ub="1"/><var name="b3" type="B" ub="1"/><var name="b4" type="B" ub="1"/><var name="b5" type="B" ub="1"/><var name="b6" type="B" ub="1"/><var name="b7" type="B" ub="1"/><var name="b8" type="B" ub="1"/><var name="b9" type="B" ub="1"/><var name="b10" type="B" ub="1"/><var name="b11" type="B" ub="1"/><var name="b12" type="B" ub="1"/><var name="b13" type="B" ub="1"/><var name="b14" type="B" ub="1"/><var name="b15" type="B" ub="1"/><var name="b16" type="B" ub="1"/><var name="b17" type="B" ub="1"/><var name="b18" type="B" ub="1"/><var name="b19" type="B" ub="1"/><var name="b20" type="B" ub="1"/><var name="b21" type="B" ub="1"/><var name="b22" type="B" ub="1"/><var name="b23" type="B" ub="1"/><var name="b24" type="B" ub="1"/><var name="b25" type="B" ub="1"/><var name="b26" type="B" ub="1"/><var name="b27" type="B" ub="1"/><var name="b28" type="B" ub="1"/><var name="b29" type="B" ub="1"/><var name="b30" type="B" ub="1"/><var name="b31" type="B" ub="1"/><var name="b32" type="B" ub="1"/><var name="b33" type="B" ub="1"/><var name="b34" type="B" ub="1"/><var name="b35" type="B" ub="1"/><var name="b36" type="B" ub="1"/><var name="b37" type="B" ub="1"/><var name="b38" type="B" ub="1"/><var name="b39" type="B" ub="1"/><var name="b40" type="B" ub="1"/><var name="b41" type="B" ub="1"/><var name="b42" type="B" ub="1"/><var name="b43" type="B" ub="1"/><var name="b44" type="B" ub="1"/><var name="b45" type="B" ub="1"/><var name="b46" type="B" ub="1"/><var name="b47" type="B" ub="1"/><var name="b48" type="B" ub="1"/><var name="b49" type="B" ub="1"/><var name="b50" type="B" ub="1"/><var name="b51" type="B" ub="1"/><var name="b52" type="B" ub="1"/><var name="b53" type="B" ub="1"/><var name="b54" type="B" ub="1"/><var name="b55" type="B" ub="1"/><var name="b56" type="B" ub="1"/><var name="b57" type="B" ub="1"/><var name="b58" type="B" ub="1"/><var name="b59" type="B" ub="1"/><var name="b60" type="B" ub="1"/><var name="b61" type="B" ub="1"/><var name="b62" type="B" ub="1"/><var name="b63" type="B" ub="1"/><var name="b64" type="B" ub="1"/><var name="b65" type="B" ub="1"/><var name="b66" type="B" ub="1"/><var name="b67" type="B" ub="1"/><var name="b68" type="B" ub="1"/><var name="b69" type="B" ub="1"/><var name="b70" type="B" ub="1"/><var name="b71" type="B" ub="1"/><var name="b72" type="B" ub="1"/><var name="b73" type="B" ub="1"/><var name="b74" type="B" ub="1"/><var name="b75" type="B" ub="1"/><var name="x76"/><var name="x77"/><var name="x78"/><var name="x79"/><var name="x80"/><var name="x81"/><var name="x82"/><var name="x83"/><var name="x84"/><var name="x85"/><var name="x86"/><var name="x87"/><var name="x88"/><var name="x89"/><var name="x90"/><var name="x91"/><var name="x92"/><var name="x93"/><var name="x94"/><var name="x95"/></variables><objectives><obj maxOrMin="min" name="defObj_objvar" numberOfObjCoef="80"><coef idx="0">301.899928098152</coef><coef idx="1">282.051473607022</coef><coef idx="2">151.594044960674</coef><coef idx="3">114.784185877557</coef><coef idx="4">213.364530716922</coef><coef idx="5">772.653148294131</coef><coef idx="6">697.676211791334</coef><coef idx="7">146.306371684975</coef><coef idx="8">390.583393857486</coef><coef idx="9">208.147527440482</coef><coef idx="10">662.892902187869</coef><coef idx="11">577.461337631217</coef><coef idx="12">221.10047354739</coef><coef idx="13">425.919826737657</coef><coef idx="14">123.074770812851</coef><coef idx="15">333.28129673946</coef><coef idx="16">248.380746723092</coef><coef idx="17">249.162942146638</coef><coef idx="18">164.598799150643</coef><coef idx="19">280.957171099846</coef><coef idx="20">308.552481034871</coef><coef idx="21">270.059605282374</coef><coef idx="22">104.633483616243</coef><coef idx="23">79.6631898566695</coef><coef idx="24">170.696237801571</coef><coef idx="25">237.754076296143</coef><coef idx="26">189.862911729786</coef><coef idx="27">107.217531395173</coef><coef idx="28">131.358715293396</coef><coef idx="29">103.406777059692</coef><coef idx="30">626.417763832299</coef><coef idx="31">487.184730842973</coef><coef idx="32">502.300580630229</coef><coef idx="33">506.426352475088</coef><coef idx="34">463.185748318154</coef><coef idx="35">358.178221555384</coef><coef idx="36">281.629247221142</coef><coef idx="37">230.4203839171</coef><coef idx="38">251.915433121165</coef><coef idx="39">209.261088879339</coef><coef idx="40">303.899003044044</coef><coef idx="41">243.197489456663</coef><coef idx="42">237.390965850675</coef><coef idx="43">57.1385835039462</coef><coef idx="44">301.733744039334</coef><coef idx="45">30.6123768510861</coef><coef idx="46">21.3396948414106</coef><coef idx="47">278.520865043453</coef><coef idx="48">162.122145724483</coef><coef idx="49">304.508803157003</coef><coef idx="50">252.516206195527</coef><coef idx="51">178.796029580139</coef><coef idx="52">319.145634893211</coef><coef idx="53">257.755103285795</coef><coef idx="54">317.996864520235</coef><coef idx="55">936.171150833806</coef><coef idx="56">887.611963724196</coef><coef idx="57">419.760722838682</coef><coef idx="58">519.981401235063</coef><coef idx="59">524.621957902125</coef><coef idx="60">326.37044675</coef><coef idx="61">119.610927362864</coef><coef idx="62">76.800859418795</coef><coef idx="63">338.15311375</coef><coef idx="64">113.101546866718</coef><coef idx="65">69.3762358590679</coef><coef idx="66">313.6973235</coef><coef idx="67">116.266585440261</coef><coef idx="68">75.0744657614982</coef><coef idx="69">401.4402965</coef><coef idx="70">138.599587312691</coef><coef idx="71">86.376825937843</coef><coef idx="72">456.70672375</coef><coef idx="73">150.554161322115</coef><coef idx="74">91.6821859840903</coef><coef idx="75">93617.1150833806</coef><coef idx="76">93617.1150833806</coef><coef idx="77">93617.1150833806</coef><coef idx="78">93617.1150833806</coef><coef idx="79">93617.1150833806</coef></obj></objectives><constraints numberOfConstraints="52"><con name="e2" lb="0" ub="0"/><con name="e3" lb="0" ub="0"/><con name="e4" lb="0" ub="0"/><con name="e5" lb="0" ub="0"/><con name="e6" lb="0" ub="0"/><con name="e7" lb="1" ub="1"/><con name="e8" lb="1" ub="1"/><con name="e9" lb="1" ub="1"/><con name="e10" lb="1" ub="1"/><con name="e11" lb="1" ub="1"/><con name="e12" lb="1" ub="1"/><con name="e13" lb="1" ub="1"/><con name="e14" lb="1" ub="1"/><con name="e15" lb="1" ub="1"/><con name="e16" lb="1" ub="1"/><con name="e17" lb="1" ub="1"/><con name="e18" lb="1" ub="1"/><con name="e19" ub="1"/><con name="e20" ub="1"/><con name="e21" ub="1"/><con name="e22" ub="1"/><con name="e23" ub="1"/><con name="e24" ub="0"/><con name="e25" ub="0"/><con name="e26" ub="0"/><con name="e27" ub="0"/><con name="e28" ub="0"/><con name="e29" ub="0"/><con name="e30" ub="0"/><con name="e31" ub="0"/><con name="e32" ub="0"/><con name="e33" ub="0"/><con name="e34" ub="0"/><con name="e35" ub="0"/><con name="e36" ub="0"/><con name="e37" ub="0"/><con name="e38" ub="0"/><con name="e39" ub="0"/><con name="e40" ub="0"/><con name="e41" ub="0"/><con name="e42" ub="0"/><con name="e43" ub="0"/><con name="e44" ub="0"/><con name="e45" ub="0"/><con name="e46" ub="0"/><con name="e47" ub="0"/><con name="e48" ub="0"/><con name="e49" ub="0"/><con name="e50" ub="0"/><con name="e51" ub="0"/><con name="e52" ub="0"/><con name="e53" ub="0"/></constraints><linearConstraintCoefficients numberOfValues="195"><start><el mult="6" incr="15">0</el><el mult="12" incr="5">80</el><el mult="5" incr="3">138</el><el mult="15" incr="2">152</el><el mult="15" incr="1">181</el></start><colIdx><el mult="12" incr="5">0</el><el mult="3" incr="1">80</el><el mult="12" incr="5">1</el><el mult="3" incr="1">83</el><el mult="12" incr="5">2</el><el mult="3" incr="1">86</el><el mult="12" incr="5">3</el><el mult="3" incr="1">89</el><el mult="12" incr="5">4</el><el mult="3" incr="1">92</el><el mult="75" incr="1">0</el><el>60</el><el>80</el><el>61</el><el>81</el><el>62</el><el>82</el><el>63</el><el>83</el><el>64</el><el>84</el><el>65</el><el>85</el><el>66</el><el>86</el><el>67</el><el>87</el><el>68</el><el>88</el><el>69</el><el>89</el><el>70</el><el>90</el><el>71</el><el>91</el><el>72</el><el>92</el><el>73</el><el>93</el><el>74</el><el>94</el><el mult="15" incr="1">80</el></colIdx><value><el>.609376132</el><el>1.180016336</el><el>.967493052</el><el>1.004918785</el><el>.698898063</el><el>.540292599</el><el>1.460452986</el><el>.811980791</el><el>.973180988</el><el>.544914116</el><el>.78515855</el><el>1.312281472</el><el>-2.0080698912</el><el>-4.0161397824</el><el>-6.0242096736</el><el>.609376132</el><el>1.180016336</el><el>.967493052</el><el>1.004918785</el><el>.698898063</el><el>.540292599</el><el>1.460452986</el><el>.811980791</el><el>.973180988</el><el>.544914116</el><el>.78515855</el><el>1.312281472</el><el>-1.581486777</el><el>-3.162973554</el><el>-4.744460331</el><el>.609376132</el><el>1.180016336</el><el>.967493052</el><el>1.004918785</el><el>.698898063</el><el>.540292599</el><el>1.460452986</el><el>.811980791</el><el>.973180988</el><el>.544914116</el><el>.78515855</el><el>1.312281472</el><el>-1.9963246902</el><el>-3.9926493804</el><el>-5.9889740706</el><el>.609376132</el><el>1.180016336</el><el>.967493052</el><el>1.004918785</el><el>.698898063</el><el>.540292599</el><el>1.460452986</el><el>.811980791</el><el>.973180988</el><el>.544914116</el><el>.78515855</el><el>1.312281472</el><el>-2.065052076</el><el>-4.130104152</el><el>-6.195156228</el><el>.609376132</el><el>1.180016336</el><el>.967493052</el><el>1.004918785</el><el>.698898063</el><el>.540292599</el><el>1.460452986</el><el>.811980791</el><el>.973180988</el><el>.544914116</el><el>.78515855</el><el>1.312281472</el><el>-2.0449844238</el><el>-4.0899688476</el><el>-6.1349532714</el><el mult="75">1</el><el>-1</el><el>1</el><el>-1</el><el>1</el><el>-1</el><el>1</el><el>-1</el><el>1</el><el>-1</el><el>1</el><el>-1</el><el>1</el><el>-1</el><el>1</el><el>-1</el><el>1</el><el>-1</el><el>1</el><el>-1</el><el>1</el><el>-1</el><el>1</el><el>-1</el><el>1</el><el>-1</el><el>1</el><el>-1</el><el>1</el><el>-1</el><el mult="16">1</el></value></linearConstraintCoefficients><nonlinearExpressions numberOfNonlinearExpressions="15"><nl idx="37"><negate><divide><variable idx="75"/><sum><number value="1"/><variable idx="75"/></sum></divide></negate></nl><nl idx="38"><negate><divide><variable idx="75"/><sum><number value="1"/><variable idx="75"/></sum></divide></negate></nl><nl idx="39"><negate><divide><variable idx="75"/><sum><number value="1"/><variable idx="75"/></sum></divide></negate></nl><nl idx="40"><negate><divide><variable idx="76"/><sum><number value="1"/><variable idx="76"/></sum></divide></negate></nl><nl idx="41"><negate><divide><variable idx="76"/><sum><number value="1"/><variable idx="76"/></sum></divide></negate></nl><nl idx="42"><negate><divide><variable idx="76"/><sum><number value="1"/><variable idx="76"/></sum></divide></negate></nl><nl idx="43"><negate><divide><variable idx="77"/><sum><number value="1"/><variable idx="77"/></sum></divide></negate></nl><nl idx="44"><negate><divide><variable idx="77"/><sum><number value="1"/><variable idx="77"/></sum></divide></negate></nl><nl idx="45"><negate><divide><variable idx="77"/><sum><number value="1"/><variable idx="77"/></sum></divide></negate></nl><nl idx="46"><negate><divide><variable idx="78"/><sum><number value="1"/><variable idx="78"/></sum></divide></negate></nl><nl idx="47"><negate><divide><variable idx="78"/><sum><number value="1"/><variable idx="78"/></sum></divide></negate></nl><nl idx="48"><negate><divide><variable idx="78"/><sum><number value="1"/><variable idx="78"/></sum></divide></negate></nl><nl idx="49"><negate><divide><variable idx="79"/><sum><number value="1"/><variable idx="79"/></sum></divide></negate></nl><nl idx="50"><negate><divide><variable idx="79"/><sum><number value="1"/><variable idx="79"/></sum></divide></negate></nl><nl idx="51"><negate><divide><variable idx="79"/><sum><number value="1"/><variable idx="79"/></sum></divide></negate></nl></nonlinearExpressions></instanceData></osil>